numero_plantas = 3;
numero_clientes = 3;
numero_dias = 3;
costos = [25.0, 35.0, 45.0];
capacidades = [300.0, 1000.0, 500.0];
G = 50.0;
demanda = [| 30.0, 40.0, 50.0
           | 20.0, 25.0, 30.0
           | 10.0, 15.0, 20.0|];
pagos = [100.0, 110.0, 120.0];
porcentaje_regimen_alto = [80.0, 80.0, 80.0];
max_dias_consecutivos_regimen = [1, 3, 2];